% Generado automaticamente desde C:/Users/andres/Desktop/SEPTIMO SEMESTRE/ADAII/proyecto_final/Proyecto-Optimizacion-ADA2/BateriaPruebas_2025_2_P2-txt/Prueba13.txt

n = 50;
m = 3;
ct = 20.0;
maxMovs = 35.0;
v = [0.239, 0.266, 0.702];
p = [20, 14, 16];
s = [| 20, 0, 0 | 7, 2, 5 | 5, 5, 6 |];
